grafovariaspontas.lp
min:9x24 7x25 11x76 7x12 7x21 8x23 6x46 8x32 9x57 1x45 9x42 5x41 11x67 9x75 6x64 8x65 1x54 7x52 8x56 5x14 ;
 x12 - x21  x14 - x41 = -1;
 x21 - x12  x23 - x32  x24 - x42  x25 - x52 = 0;
 x32 - x23 = 1;
 x41 - x14  x42 - x24  x45 - x54  x46 - x64 = 0;
 x52 - x25  x54 - x45  x56 - x65  x57 - x75 = 0;
 x64 - x46  x65 - x56  x67 - x76 = 0;
 x75 - x57  x76 - x67 = 0;

