grafovariaspontas.txt
7 10
1 3 1
1 2 7
1 4 5
2 3 8
2 5 7
4 2 9
4 5 1
4 6 6
5 7 9
6 5 8
6 7 11